NAME : traveling-santa-2018-prime-paths.31250.tour
COMMENT : Length = 31250
COMMENT : Found by LKH [Keld Helsgaun] Mon Jun 27 15:57:32 2022
TYPE : TOUR
DIMENSION : 100
TOUR_SECTION
1
6
17
90
73
16
14
15
12
95
7
23
54
91
96
4
81
83
35
58
86
5
88
37
94
70
32
60
41
33
42
52
36
26
61
78
100
43
53
2
13
97
79
39
9
93
84
18
51
85
75
87
80
11
31
38
25
69
63
48
29
45
98
59
57
77
8
49
27
62
71
99
20
72
92
40
67
68
47
22
65
21
3
66
50
56
76
64
28
55
34
44
82
10
46
24
89
19
74
30
-1
EOF
